WARNING: for repeatability, setting FPU to use double precision
============================[ Problem Statistics ]=============================
|                                                                             |
|  Number of variables:        231328                                         |
|  Number of clauses:          536674                                         |
|  Parse time:                   0.29 s                                       |
|                                                                             |
============================[ Search Statistics ]==============================
| Conflicts |          ORIGINAL         |          LEARNT          | Progress |
|           |    Vars  Clauses Literals |    Limit  Clauses Lit/Cl |          |
===============================================================================
|       100 |  127880   514552  1156384 |   188669      100     13 | 44.719 % |
|       250 |  127880   514552  1156384 |   207535      250     16 | 44.719 % |
|       475 |  127880   514552  1156384 |   228289      475     17 | 44.719 % |
|       812 |  127880   514552  1156384 |   251118      812     23 | 44.719 % |
|      1318 |  127880   514552  1156384 |   276230     1318     26 | 44.719 % |
|      2077 |  127880   514552  1156384 |   303853     2077     31 | 44.719 % |
===============================================================================
restarts              : 15
conflicts             : 2638           (1291 /sec)
decisions             : 37369          (0.00 % random) (18281 /sec)
propagations          : 7203504        (3524000 /sec)
conflict literals     : 84867          (5.68 % deleted)
Memory used           : 62.00 MB
CPU time              : 2.04413 s

SATISFIABLE
